Grasp exp. instance_n_25_m_10_id_3.lp tipoLifted 0 szPool 1 nIteration 100 alpha 1 
Academic license - for non-commercial use only
Read LP format model from file ../input/instancesGenerated/instance_n_25_m_10_id_3.lp
Reading time = 0.00 seconds
: 10 rows, 25 columns, 127 nonzeros
Optimize a model with 10 rows, 25 columns and 127 nonzeros
Variable types: 0 continuous, 25 integer (25 binary)
Coefficient statistics:
  Matrix range     [1e+00, 1e+01]
  Objective range  [1e+00, 1e+01]
  Bounds range     [1e+00, 1e+00]
  RHS range        [2e+01, 5e+01]
Found heuristic solution: objective 72.0000000

Explored 0 nodes (0 simplex iterations) in 0.00 seconds
Thread count was 1 (of 8 available processors)

Solution count 1: 72 
No other solutions better than 0

Solution limit reached
Best objective 7.200000000000e+01, best bound -, gap -
C_1:	 6.00 x_1  = 0.802813 + 10.00 x_3  = 0.000000 + 6.00 x_4  = 0.000000 + 6.00 x_6  = 0.425902 + 3.00 x_7  = 0.935245 + 9.00 x_9  = 0.740716 + 7.00 x_10  = 0.000000 + 1.00 x_14  = 0.000000 + 10.00 x_15  = 1.000000 + 9.00 x_16  = 0.398359 + 9.00 x_19  = 1.000000 + 1.00 x_20  = 0.570302 + 6.00 x_24  = 1.000000 + 10.00 x_25  = 0.000000 <= 46.00
C_2:	 10.00 x_1  = 0.802813 + 1.00 x_2  = 0.567273 + 10.00 x_4  = 0.000000 + 9.00 x_6  = 0.425902 + 7.00 x_7  = 0.935245 + 7.00 x_10  = 0.000000 + 10.00 x_12  = 0.883790 + 1.00 x_13  = 1.000000 + 1.00 x_14  = 0.000000 + 6.00 x_15  = 1.000000 + 8.00 x_16  = 0.398359 + 4.00 x_17  = 0.000000 + 7.00 x_23  = 0.000000 + 4.00 x_24  = 1.000000 <= 42.00
C_3:	 4.00 x_1  = 0.802813 + 1.00 x_3  = 0.000000 + 5.00 x_4  = 0.000000 + 9.00 x_7  = 0.935245 + 7.00 x_9  = 0.740716 + 8.00 x_10  = 0.000000 + 3.00 x_11  = 1.000000 + 7.00 x_12  = 0.883790 + 10.00 x_14  = 0.000000 + 5.00 x_21  = 1.000000 + 3.00 x_25  = 0.000000 <= 31.00
C_4:	 1.00 x_1  = 0.802813 + 6.00 x_8  = 0.000000 + 3.00 x_9  = 0.740716 + 7.00 x_12  = 0.883790 + 7.00 x_16  = 0.398359 + 8.00 x_17  = 0.000000 + 4.00 x_19  = 1.000000 + 7.00 x_21  = 1.000000 + 3.00 x_23  = 0.000000 <= 23.00
C_5:	 1.00 x_1  = 0.802813 + 8.00 x_2  = 0.567273 + 5.00 x_3  = 0.000000 + 7.00 x_4  = 0.000000 + 4.00 x_5  = 1.000000 + 2.00 x_7  = 0.935245 + 3.00 x_8  = 0.000000 + 9.00 x_10  = 0.000000 + 9.00 x_13  = 1.000000 + 8.00 x_14  = 0.000000 + 4.00 x_15  = 1.000000 + 7.00 x_16  = 0.398359 + 2.00 x_21  = 1.000000 + 9.00 x_22  = 1.000000 + 7.00 x_23  = 0.000000 + 9.00 x_24  = 1.000000 <= 47.00
C_6:	 10.00 x_1  = 0.802813 + 2.00 x_3  = 0.000000 + 2.00 x_4  = 0.000000 + 2.00 x_7  = 0.935245 + 6.00 x_10  = 0.000000 + 1.00 x_11  = 1.000000 + 7.00 x_14  = 0.000000 + 1.00 x_16  = 0.398359 + 9.00 x_18  = 0.000000 + 5.00 x_19  = 1.000000 + 10.00 x_20  = 0.570302 + 8.00 x_21  = 1.000000 + 6.00 x_22  = 1.000000 + 7.00 x_23  = 0.000000 + 9.00 x_24  = 1.000000 + 5.00 x_25  = 0.000000 <= 45.00
C_7:	 10.00 x_4  = 0.000000 + 3.00 x_6  = 0.425902 + 2.00 x_8  = 0.000000 + 9.00 x_9  = 0.740716 + 2.00 x_12  = 0.883790 + 6.00 x_20  = 0.570302 + 9.00 x_21  = 1.000000 + 6.00 x_23  = 0.000000 <= 23.00
C_8:	 2.00 x_1  = 0.802813 + 5.00 x_2  = 0.567273 + 7.00 x_6  = 0.425902 + 10.00 x_8  = 0.000000 + 6.00 x_9  = 0.740716 + 3.00 x_10  = 0.000000 + 10.00 x_11  = 1.000000 + 9.00 x_14  = 0.000000 + 3.00 x_15  = 1.000000 + 5.00 x_16  = 0.398359 + 10.00 x_18  = 0.000000 + 9.00 x_19  = 1.000000 + 2.00 x_20  = 0.570302 + 7.00 x_21  = 1.000000 <= 44.00
C_9:	 4.00 x_2  = 0.567273 + 3.00 x_3  = 0.000000 + 5.00 x_4  = 0.000000 + 3.00 x_5  = 1.000000 + 2.00 x_6  = 0.425902 + 3.00 x_7  = 0.935245 + 3.00 x_8  = 0.000000 + 3.00 x_9  = 0.740716 + 7.00 x_10  = 0.000000 + 5.00 x_12  = 0.883790 + 9.00 x_14  = 0.000000 + 8.00 x_16  = 0.398359 + 1.00 x_19  = 1.000000 + 10.00 x_24  = 1.000000 + 3.00 x_25  = 0.000000 <= 34.00
C_10:	 9.00 x_3  = 0.000000 + 5.00 x_5  = 1.000000 + 10.00 x_6  = 0.425902 + 4.00 x_7  = 0.935245 + 6.00 x_10  = 0.000000 + 1.00 x_14  = 0.000000 + 1.00 x_15  = 1.000000 + 1.00 x_19  = 1.000000 + 3.00 x_22  = 1.000000 + 3.00 x_24  = 1.000000 <= 21.00
Solution initial: 98.391339 
Number Constraints Used in Cover:10
GRASP Method!
Number cuts repeat: 0
value: 98.391339
Number Constraints Used in Cover:13
GRASP Method!
Number cuts repeat: 0
value: 98.391339
Number Constraints Used in Cover:16
GRASP Method!
Number cuts repeat: 0
value: 98.391339
Number Constraints Used in Cover:19
GRASP Method!
Number cuts repeat: 0
value: 98.391339
Number Constraints Used in Cover:22
GRASP Method!
Number cuts repeat: 0
value: 98.391339
Number Constraints Used in Cover:25
GRASP Method!
Number cuts repeat: 0
value: 98.391339
Number Constraints Used in Cover:29
GRASP Method!
Number cuts repeat: 0
value: 98.391339
Number Constraints Used in Cover:33
GRASP Method!
Number cuts repeat: 0
value: 98.391339
Number Constraints Used in Cover:37
GRASP Method!
Number cuts repeat: 0
value: 98.391339
Number Constraints Used in Cover:41
GRASP Method!
Number cuts repeat: 0
value: 98.391339
Number Constraints Used in Cover:44
GRASP Method!
Number cuts repeat: 0
value: 98.391339
Number Constraints Used in Cover:48
GRASP Method!
Number cuts repeat: 0
value: 98.391339
Number Constraints Used in Cover:52
GRASP Method!
Number cuts repeat: 0
value: 98.391339
Number Constraints Used in Cover:55
GRASP Method!
Number cuts repeat: 0
value: 98.391339
Number Constraints Used in Cover:57
GRASP Method!
Number cuts repeat: 0
value: 98.391339
Number Constraints Used in Cover:60
GRASP Method!
Number cuts repeat: 0
value: 98.391339
Number Constraints Used in Cover:63
GRASP Method!
Number cuts repeat: 0
value: 98.391339
Number Constraints Used in Cover:66
GRASP Method!
Number cuts repeat: 0
value: 98.391339
Number Constraints Used in Cover:68
GRASP Method!
Number cuts repeat: 0
value: 98.191664
Number Constraints Used in Cover:72
GRASP Method!
Number cuts repeat: 0
value: 98.191664
Number Constraints Used in Cover:75
GRASP Method!
Number cuts repeat: 0
value: 98.191664
Number Constraints Used in Cover:79
GRASP Method!
Number cuts repeat: 0
value: 98.191664
Number Constraints Used in Cover:83
GRASP Method!
Number cuts repeat: 0
value: 98.191664
Number Constraints Used in Cover:87
GRASP Method!
Number cuts repeat: 0
value: 98.191664
Number Constraints Used in Cover:89
GRASP Method!
Number cuts repeat: 0
value: 98.191664
Number Constraints Used in Cover:93
GRASP Method!
Number cuts repeat: 0
value: 98.191664
Number Constraints Used in Cover:96
GRASP Method!
Number cuts repeat: 0
value: 98.191664
Number Constraints Used in Cover:98
GRASP Method!
Number cuts repeat: 0
value: 98.191664
Number Constraints Used in Cover:101
GRASP Method!
Number cuts repeat: 0
value: 98.191664
Number Constraints Used in Cover:104
GRASP Method!
Number cuts repeat: 0
value: 98.191664
Number Constraints Used in Cover:109
GRASP Method!
Number cuts repeat: 0
value: 98.191664
Number Constraints Used in Cover:114
GRASP Method!
Number cuts repeat: 0
value: 98.191664
Number Constraints Used in Cover:120
GRASP Method!
Number cuts repeat: 0
value: 98.191664
Number Constraints Used in Cover:126
GRASP Method!
Number cuts repeat: 0
value: 98.191664
Number Constraints Used in Cover:131
GRASP Method!
Number cuts repeat: 0
value: 98.191664
Number Constraints Used in Cover:137
GRASP Method!
Number cuts repeat: 0
value: 98.191664
Number Constraints Used in Cover:141
GRASP Method!
Number cuts repeat: 0
value: 98.191664
Number Constraints Used in Cover:147
GRASP Method!
Number cuts repeat: 0
value: 98.191664
Number Constraints Used in Cover:150
GRASP Method!
Number cuts repeat: 0
value: 98.191664
Number Constraints Used in Cover:154
GRASP Method!
Number cuts repeat: 0
value: 98.191664
Number Constraints Used in Cover:159
GRASP Method!
Number cuts repeat: 0
value: 98.191664
Number Constraints Used in Cover:165
GRASP Method!
Number cuts repeat: 0
value: 98.191664
Number Constraints Used in Cover:169
GRASP Method!
Number cuts repeat: 0
value: 98.191664
Number Constraints Used in Cover:176
GRASP Method!
Number cuts repeat: 0
value: 98.191664
Number Constraints Used in Cover:181
GRASP Method!
Number cuts repeat: 0
value: 98.191664
Number Constraints Used in Cover:186
GRASP Method!
Number cuts repeat: 0
value: 98.191664
Number Constraints Used in Cover:190
GRASP Method!
Number cuts repeat: 0
value: 98.191664
Number Constraints Used in Cover:196
GRASP Method!
Number cuts repeat: 0
value: 98.191664
Number Constraints Used in Cover:204
GRASP Method!
Number cuts repeat: 0
value: 98.191664
Number Constraints Used in Cover:208
GRASP Method!
Number cuts repeat: 0
value: 98.191664
Number Constraints Used in Cover:214
GRASP Method!
Number cuts repeat: 0
value: 98.191664
Number Constraints Used in Cover:220
GRASP Method!
Number cuts repeat: 0
value: 98.191664
Number Constraints Used in Cover:225
GRASP Method!
Number cuts repeat: 0
value: 98.191664
Number Constraints Used in Cover:231
GRASP Method!
Number cuts repeat: 0
value: 98.191664
Number Constraints Used in Cover:236
GRASP Method!
Number cuts repeat: 0
value: 98.191664
Number Constraints Used in Cover:241
GRASP Method!
Number cuts repeat: 0
value: 98.191664
Number Constraints Used in Cover:247
GRASP Method!
Number cuts repeat: 0
value: 98.191664
Number Constraints Used in Cover:252
GRASP Method!
Number cuts repeat: 0
value: 98.191664
Number Constraints Used in Cover:257
GRASP Method!
Number cuts repeat: 0
value: 98.191664
Number Constraints Used in Cover:264
GRASP Method!
Number cuts repeat: 0
value: 98.191664
Number Constraints Used in Cover:268
GRASP Method!
Number cuts repeat: 0
value: 98.191664
Number Constraints Used in Cover:276
GRASP Method!
Number cuts repeat: 0
value: 98.191664
Number Constraints Used in Cover:281
GRASP Method!
Number cuts repeat: 0
value: 98.191664
Number Constraints Used in Cover:284
GRASP Method!
Number cuts repeat: 0
value: 98.191664
Number Constraints Used in Cover:291
GRASP Method!
Number cuts repeat: 0
value: 98.191664
Number Constraints Used in Cover:298
GRASP Method!
Number cuts repeat: 0
value: 98.191664
Number Constraints Used in Cover:303
GRASP Method!
Number cuts repeat: 0
value: 98.191664
Number Constraints Used in Cover:309
GRASP Method!
Number cuts repeat: 0
value: 98.191664
Number Constraints Used in Cover:315
GRASP Method!
Number cuts repeat: 0
value: 98.191664
Number Constraints Used in Cover:321
GRASP Method!
Number cuts repeat: 0
value: 98.191664
Number Constraints Used in Cover:324
GRASP Method!
Number cuts repeat: 0
value: 98.191664
Number Constraints Used in Cover:329
GRASP Method!
Number cuts repeat: 0
value: 98.191664
Number Constraints Used in Cover:335
GRASP Method!
Number cuts repeat: 0
value: 98.191664
Number Constraints Used in Cover:342
GRASP Method!
Number cuts repeat: 0
value: 98.191664
Number Constraints Used in Cover:348
GRASP Method!
Number cuts repeat: 0
value: 98.191664
Number Constraints Used in Cover:354
GRASP Method!
Number cuts repeat: 0
value: 98.191664
Number Constraints Used in Cover:359
GRASP Method!
Number cuts repeat: 0
value: 98.191664
Number Constraints Used in Cover:366
GRASP Method!
Number cuts repeat: 0
value: 98.191664
Number Constraints Used in Cover:374
GRASP Method!
Number cuts repeat: 0
value: 98.191664
Number Constraints Used in Cover:380
GRASP Method!
Number cuts repeat: 0
value: 98.191664
Number Constraints Used in Cover:385
GRASP Method!
Number cuts repeat: 0
value: 98.191664
Number Constraints Used in Cover:389
GRASP Method!
Number cuts repeat: 0
value: 98.191664
Number Constraints Used in Cover:395
GRASP Method!
Number cuts repeat: 0
value: 98.191664
Number Constraints Used in Cover:402
GRASP Method!
Number cuts repeat: 0
value: 98.191664
Number Constraints Used in Cover:405
GRASP Method!
Number cuts repeat: 0
value: 98.191664
Number Constraints Used in Cover:409
GRASP Method!
Number cuts repeat: 0
value: 98.191664
Number Constraints Used in Cover:412
GRASP Method!
Number cuts repeat: 0
value: 98.191664
Number Constraints Used in Cover:418
GRASP Method!
Number cuts repeat: 0
value: 98.191664
Number Constraints Used in Cover:424
GRASP Method!
Number cuts repeat: 0
value: 98.191664
Number Constraints Used in Cover:429
GRASP Method!
Number cuts repeat: 0
value: 98.191664
Number Constraints Used in Cover:434
GRASP Method!
Number cuts repeat: 0
value: 98.191664
Number Constraints Used in Cover:439
GRASP Method!
Number cuts repeat: 0
value: 98.191664
Number Constraints Used in Cover:447
GRASP Method!
Number cuts repeat: 0
value: 98.191664
Number Constraints Used in Cover:457
GRASP Method!
Number cuts repeat: 0
value: 98.191664
Number Constraints Used in Cover:463
GRASP Method!
Number cuts repeat: 0
value: 98.191664
Number Constraints Used in Cover:469
GRASP Method!
Number cuts repeat: 0
value: 98.191664
Number Constraints Used in Cover:473
GRASP Method!
Number cuts repeat: 0
value: 98.191664
Number Constraints Used in Cover:478
GRASP Method!
Number cuts repeat: 0
value: 98.191664
Number Constraints Used in Cover:483
GRASP Method!
Number cuts repeat: 0
value: 98.191664
Number Constraints Used in Cover:488
GRASP Method!
Number cuts repeat: 0
value: 98.191664
Number Constraints Used in Cover:493
GRASP Method!
Number cuts repeat: 0
value: 98.191664
Number Constraints Used in Cover:498
GRASP Method!
Number cuts repeat: 0
value: 98.191664
Number Constraints Used in Cover:502
GRASP Method!
Number cuts repeat: 0
value: 98.191664
Number Constraints Used in Cover:506
GRASP Method!
Number cuts repeat: 0
value: 98.191664
Number Constraints Used in Cover:514
GRASP Method!
Number cuts repeat: 0
value: 98.191664
Number Constraints Used in Cover:521
GRASP Method!
Number cuts repeat: 0
value: 98.191664
Number Constraints Used in Cover:525
GRASP Method!
Number cuts repeat: 0
value: 98.191664
Number Constraints Used in Cover:535
GRASP Method!
Number cuts repeat: 0
value: 98.191664
Number Constraints Used in Cover:542
GRASP Method!
Number cuts repeat: 0
value: 98.191664
Number Constraints Used in Cover:548
GRASP Method!
Number cuts repeat: 0
value: 98.191664
Number Constraints Used in Cover:552
GRASP Method!
Number cuts repeat: 0
value: 98.191664
Number Constraints Used in Cover:555
GRASP Method!
Number cuts repeat: 0
value: 98.191664
Number Constraints Used in Cover:560
GRASP Method!
Number cuts repeat: 0
value: 98.191664
Number Constraints Used in Cover:569
GRASP Method!
Number cuts repeat: 0
value: 98.191664
Number Constraints Used in Cover:572
GRASP Method!
Number cuts repeat: 0
value: 98.191664
Number Constraints Used in Cover:579
GRASP Method!
Number cuts repeat: 0
value: 98.191664
Number Constraints Used in Cover:587
GRASP Method!
Number cuts repeat: 0
value: 98.191664
Number Constraints Used in Cover:592
GRASP Method!
Number cuts repeat: 0
value: 98.191664
Number Constraints Used in Cover:596
GRASP Method!
Number cuts repeat: 0
value: 98.191664
Number Constraints Used in Cover:601
GRASP Method!
Number cuts repeat: 0
value: 98.191664
Number Constraints Used in Cover:605
GRASP Method!
Number cuts repeat: 0
value: 98.191664
Number Constraints Used in Cover:611
GRASP Method!
Number cuts repeat: 0
value: 98.191664
Number Constraints Used in Cover:618
GRASP Method!
Number cuts repeat: 0
value: 98.191664
Number Constraints Used in Cover:621
GRASP Method!
Number cuts repeat: 0
value: 98.191664
Number Constraints Used in Cover:627
GRASP Method!
Number cuts repeat: 0
value: 98.191664
Number Constraints Used in Cover:632
GRASP Method!
Number cuts repeat: 0
value: 98.191664
Number Constraints Used in Cover:637
GRASP Method!
Number cuts repeat: 0
value: 98.191664
Number Constraints Used in Cover:642
GRASP Method!
Number cuts repeat: 0
value: 98.191664
Number Constraints Used in Cover:646
GRASP Method!
Number cuts repeat: 0
value: 98.191664
Number Constraints Used in Cover:652
GRASP Method!
Number cuts repeat: 0
value: 98.191664
Number Constraints Used in Cover:657
GRASP Method!
Number cuts repeat: 0
value: 98.191664
Number Constraints Used in Cover:661
GRASP Method!
Number cuts repeat: 0
value: 98.191664
Number Constraints Used in Cover:666
GRASP Method!
Number cuts repeat: 0
value: 98.191664
Number Constraints Used in Cover:671
GRASP Method!
Number cuts repeat: 0
value: 98.191664
Number Constraints Used in Cover:675
GRASP Method!
Number cuts repeat: 0
value: 98.191664
Number Constraints Used in Cover:681
GRASP Method!
Number cuts repeat: 0
value: 98.191664
Number Constraints Used in Cover:684
GRASP Method!
Number cuts repeat: 0
value: 98.191664
Number Constraints Used in Cover:688
GRASP Method!
Number cuts repeat: 0
value: 98.191664
Number Constraints Used in Cover:694
GRASP Method!
Number cuts repeat: 0
value: 98.191664
Number Constraints Used in Cover:699
GRASP Method!
Number cuts repeat: 0
value: 98.191664
Number Constraints Used in Cover:704
GRASP Method!
Number cuts repeat: 0
value: 98.191664
Number Constraints Used in Cover:707
GRASP Method!
Number cuts repeat: 0
value: 98.191664
Number Constraints Used in Cover:709
GRASP Method!
Number cuts repeat: 0
value: 98.191664
Number Constraints Used in Cover:714
GRASP Method!
Number cuts repeat: 0
value: 98.191664
Number Constraints Used in Cover:719
GRASP Method!
Number cuts repeat: 0
value: 98.191664
Number Constraints Used in Cover:725
GRASP Method!
Number cuts repeat: 0
value: 98.191664
Number Constraints Used in Cover:728
GRASP Method!
Number cuts repeat: 0
value: 98.191664
Number Constraints Used in Cover:736
GRASP Method!
Number cuts repeat: 0
value: 98.191664
Number Constraints Used in Cover:742
GRASP Method!
Number cuts repeat: 0
value: 98.191664
Number Constraints Used in Cover:751
GRASP Method!
Number cuts repeat: 0
value: 98.191664
Number Constraints Used in Cover:756
GRASP Method!
Number cuts repeat: 0
value: 98.191664
Number Constraints Used in Cover:761
GRASP Method!
Number cuts repeat: 0
value: 98.191664
Number Constraints Used in Cover:767
GRASP Method!
Number cuts repeat: 0
value: 98.191664
Number Constraints Used in Cover:774
GRASP Method!
Number cuts repeat: 0
value: 98.191664
Number Constraints Used in Cover:779
GRASP Method!
Number cuts repeat: 0
value: 98.191664
Number Constraints Used in Cover:782
GRASP Method!
Number cuts repeat: 0
value: 98.191664
Number Constraints Used in Cover:787
GRASP Method!
Number cuts repeat: 0
value: 98.191664
Number Constraints Used in Cover:793
GRASP Method!
Number cuts repeat: 0
value: 98.191664
Number Constraints Used in Cover:800
GRASP Method!
Number cuts repeat: 0
value: 98.191664
Number Constraints Used in Cover:805
GRASP Method!
Number cuts repeat: 0
value: 98.191664
Number Constraints Used in Cover:811
GRASP Method!
Number cuts repeat: 0
value: 98.191664
Number Constraints Used in Cover:819
GRASP Method!
Number cuts repeat: 0
value: 98.191664
Number Constraints Used in Cover:826
GRASP Method!
Number cuts repeat: 0
value: 98.191664
Number Constraints Used in Cover:832
GRASP Method!
Number cuts repeat: 0
value: 98.191664
Number Constraints Used in Cover:836
GRASP Method!
Number cuts repeat: 0
value: 98.191664
Number Constraints Used in Cover:842
GRASP Method!
Number cuts repeat: 0
value: 98.191664
Number Constraints Used in Cover:847
GRASP Method!
Number cuts repeat: 0
value: 98.191664
Number Constraints Used in Cover:853
GRASP Method!
Number cuts repeat: 0
value: 98.191664
Number Constraints Used in Cover:858
GRASP Method!
Number cuts repeat: 0
value: 98.191664
Number Cuts Final: 853
